(set-logic QF_LRA)
(declare-fun X0 () Real )
(declare-fun Y0 () Real )
(declare-fun X1 () Real )
(declare-fun Y1 () Real )
(declare-fun X2 () Real )
(declare-fun Y2 () Real )
(declare-fun X3 () Real )
(declare-fun Y3 () Real )
(declare-fun X4 () Real )
(declare-fun Y4 () Real )
(declare-fun X5 () Real )
(declare-fun Y5 () Real )
(declare-fun X6 () Real )
(declare-fun Y6 () Real )
(declare-fun X7 () Real )
(declare-fun Y7 () Real )
(declare-fun X8 () Real )
(declare-fun Y8 () Real )
(declare-fun X9 () Real )
(declare-fun Y9 () Real )
(declare-fun X10 () Real )
(declare-fun Y10 () Real )
(declare-fun X11 () Real )
(declare-fun Y11 () Real )
(declare-fun X12 () Real )
(declare-fun Y12 () Real )
(declare-fun X13 () Real )
(declare-fun Y13 () Real )
(declare-fun X14 () Real )
(declare-fun Y14 () Real )
(declare-fun X15 () Real )
(declare-fun Y15 () Real )
(declare-fun X16 () Real )
(declare-fun Y16 () Real )
(declare-fun X17 () Real )
(declare-fun Y17 () Real )
(declare-fun Z () Real )
(declare-fun k () Real )
(assert (let
(( $goal (>= Z k) ))
(let
((
$phi ( and 
( or ( <= ( + X0 80 ) X1 )  ( <= ( + X1 64 ) X0 )  ( <= ( + Y0 7 ) Y1 )  ( <= ( + Y1 94 ) Y0 )  )
( or ( <= ( + X0 80 ) X2 )  ( <= ( + X2 43 ) X0 )  ( <= ( + Y0 7 ) Y2 )  ( <= ( + Y2 75 ) Y0 )  )
( or ( <= ( + X0 80 ) X3 )  ( <= ( + X3 28 ) X0 )  ( <= ( + Y0 7 ) Y3 )  ( <= ( + Y3 48 ) Y0 )  )
( or ( <= ( + X0 80 ) X4 )  ( <= ( + X4 73 ) X0 )  ( <= ( + Y0 7 ) Y4 )  ( <= ( + Y4 81 ) Y0 )  )
( or ( <= ( + X0 80 ) X5 )  ( <= ( + X5 15 ) X0 )  ( <= ( + Y0 7 ) Y5 )  ( <= ( + Y5 66 ) Y0 )  )
( or ( <= ( + X0 80 ) X6 )  ( <= ( + X6 70 ) X0 )  ( <= ( + Y0 7 ) Y6 )  ( <= ( + Y6 76 ) Y0 )  )
( or ( <= ( + X0 80 ) X7 )  ( <= ( + X7 9 ) X0 )  ( <= ( + Y0 7 ) Y7 )  ( <= ( + Y7 67 ) Y0 )  )
( or ( <= ( + X0 80 ) X8 )  ( <= ( + X8 80 ) X0 )  ( <= ( + Y0 7 ) Y8 )  ( <= ( + Y8 52 ) Y0 )  )
( or ( <= ( + X0 80 ) X9 )  ( <= ( + X9 40 ) X0 )  ( <= ( + Y0 7 ) Y9 )  ( <= ( + Y9 18 ) Y0 )  )
( or ( <= ( + X0 80 ) X10 )  ( <= ( + X10 81 ) X0 )  ( <= ( + Y0 7 ) Y10 )  ( <= ( + Y10 93 ) Y0 )  )
( or ( <= ( + X0 80 ) X11 )  ( <= ( + X11 16 ) X0 )  ( <= ( + Y0 7 ) Y11 )  ( <= ( + Y11 90 ) Y0 )  )
( or ( <= ( + X0 80 ) X12 )  ( <= ( + X12 64 ) X0 )  ( <= ( + Y0 7 ) Y12 )  ( <= ( + Y12 16 ) Y0 )  )
( or ( <= ( + X0 80 ) X13 )  ( <= ( + X13 19 ) X0 )  ( <= ( + Y0 7 ) Y13 )  ( <= ( + Y13 24 ) Y0 )  )
( or ( <= ( + X0 80 ) X14 )  ( <= ( + X14 77 ) X0 )  ( <= ( + Y0 7 ) Y14 )  ( <= ( + Y14 5 ) Y0 )  )
( or ( <= ( + X0 80 ) X15 )  ( <= ( + X15 42 ) X0 )  ( <= ( + Y0 7 ) Y15 )  ( <= ( + Y15 58 ) Y0 )  )
( or ( <= ( + X0 80 ) X16 )  ( <= ( + X16 4 ) X0 )  ( <= ( + Y0 7 ) Y16 )  ( <= ( + Y16 52 ) Y0 )  )
( or ( <= ( + X0 80 ) X17 )  ( <= ( + X17 61 ) X0 )  ( <= ( + Y0 7 ) Y17 )  ( <= ( + Y17 77 ) Y0 )  )
( or ( <= ( + X1 64 ) X2 )  ( <= ( + X2 43 ) X1 )  ( <= ( + Y1 94 ) Y2 )  ( <= ( + Y2 75 ) Y1 )  )
( or ( <= ( + X1 64 ) X3 )  ( <= ( + X3 28 ) X1 )  ( <= ( + Y1 94 ) Y3 )  ( <= ( + Y3 48 ) Y1 )  )
( or ( <= ( + X1 64 ) X4 )  ( <= ( + X4 73 ) X1 )  ( <= ( + Y1 94 ) Y4 )  ( <= ( + Y4 81 ) Y1 )  )
( or ( <= ( + X1 64 ) X5 )  ( <= ( + X5 15 ) X1 )  ( <= ( + Y1 94 ) Y5 )  ( <= ( + Y5 66 ) Y1 )  )
( or ( <= ( + X1 64 ) X6 )  ( <= ( + X6 70 ) X1 )  ( <= ( + Y1 94 ) Y6 )  ( <= ( + Y6 76 ) Y1 )  )
( or ( <= ( + X1 64 ) X7 )  ( <= ( + X7 9 ) X1 )  ( <= ( + Y1 94 ) Y7 )  ( <= ( + Y7 67 ) Y1 )  )
( or ( <= ( + X1 64 ) X8 )  ( <= ( + X8 80 ) X1 )  ( <= ( + Y1 94 ) Y8 )  ( <= ( + Y8 52 ) Y1 )  )
( or ( <= ( + X1 64 ) X9 )  ( <= ( + X9 40 ) X1 )  ( <= ( + Y1 94 ) Y9 )  ( <= ( + Y9 18 ) Y1 )  )
( or ( <= ( + X1 64 ) X10 )  ( <= ( + X10 81 ) X1 )  ( <= ( + Y1 94 ) Y10 )  ( <= ( + Y10 93 ) Y1 )  )
( or ( <= ( + X1 64 ) X11 )  ( <= ( + X11 16 ) X1 )  ( <= ( + Y1 94 ) Y11 )  ( <= ( + Y11 90 ) Y1 )  )
( or ( <= ( + X1 64 ) X12 )  ( <= ( + X12 64 ) X1 )  ( <= ( + Y1 94 ) Y12 )  ( <= ( + Y12 16 ) Y1 )  )
( or ( <= ( + X1 64 ) X13 )  ( <= ( + X13 19 ) X1 )  ( <= ( + Y1 94 ) Y13 )  ( <= ( + Y13 24 ) Y1 )  )
( or ( <= ( + X1 64 ) X14 )  ( <= ( + X14 77 ) X1 )  ( <= ( + Y1 94 ) Y14 )  ( <= ( + Y14 5 ) Y1 )  )
( or ( <= ( + X1 64 ) X15 )  ( <= ( + X15 42 ) X1 )  ( <= ( + Y1 94 ) Y15 )  ( <= ( + Y15 58 ) Y1 )  )
( or ( <= ( + X1 64 ) X16 )  ( <= ( + X16 4 ) X1 )  ( <= ( + Y1 94 ) Y16 )  ( <= ( + Y16 52 ) Y1 )  )
( or ( <= ( + X1 64 ) X17 )  ( <= ( + X17 61 ) X1 )  ( <= ( + Y1 94 ) Y17 )  ( <= ( + Y17 77 ) Y1 )  )
( or ( <= ( + X2 43 ) X3 )  ( <= ( + X3 28 ) X2 )  ( <= ( + Y2 75 ) Y3 )  ( <= ( + Y3 48 ) Y2 )  )
( or ( <= ( + X2 43 ) X4 )  ( <= ( + X4 73 ) X2 )  ( <= ( + Y2 75 ) Y4 )  ( <= ( + Y4 81 ) Y2 )  )
( or ( <= ( + X2 43 ) X5 )  ( <= ( + X5 15 ) X2 )  ( <= ( + Y2 75 ) Y5 )  ( <= ( + Y5 66 ) Y2 )  )
( or ( <= ( + X2 43 ) X6 )  ( <= ( + X6 70 ) X2 )  ( <= ( + Y2 75 ) Y6 )  ( <= ( + Y6 76 ) Y2 )  )
( or ( <= ( + X2 43 ) X7 )  ( <= ( + X7 9 ) X2 )  ( <= ( + Y2 75 ) Y7 )  ( <= ( + Y7 67 ) Y2 )  )
( or ( <= ( + X2 43 ) X8 )  ( <= ( + X8 80 ) X2 )  ( <= ( + Y2 75 ) Y8 )  ( <= ( + Y8 52 ) Y2 )  )
( or ( <= ( + X2 43 ) X9 )  ( <= ( + X9 40 ) X2 )  ( <= ( + Y2 75 ) Y9 )  ( <= ( + Y9 18 ) Y2 )  )
( or ( <= ( + X2 43 ) X10 )  ( <= ( + X10 81 ) X2 )  ( <= ( + Y2 75 ) Y10 )  ( <= ( + Y10 93 ) Y2 )  )
( or ( <= ( + X2 43 ) X11 )  ( <= ( + X11 16 ) X2 )  ( <= ( + Y2 75 ) Y11 )  ( <= ( + Y11 90 ) Y2 )  )
( or ( <= ( + X2 43 ) X12 )  ( <= ( + X12 64 ) X2 )  ( <= ( + Y2 75 ) Y12 )  ( <= ( + Y12 16 ) Y2 )  )
( or ( <= ( + X2 43 ) X13 )  ( <= ( + X13 19 ) X2 )  ( <= ( + Y2 75 ) Y13 )  ( <= ( + Y13 24 ) Y2 )  )
( or ( <= ( + X2 43 ) X14 )  ( <= ( + X14 77 ) X2 )  ( <= ( + Y2 75 ) Y14 )  ( <= ( + Y14 5 ) Y2 )  )
( or ( <= ( + X2 43 ) X15 )  ( <= ( + X15 42 ) X2 )  ( <= ( + Y2 75 ) Y15 )  ( <= ( + Y15 58 ) Y2 )  )
( or ( <= ( + X2 43 ) X16 )  ( <= ( + X16 4 ) X2 )  ( <= ( + Y2 75 ) Y16 )  ( <= ( + Y16 52 ) Y2 )  )
( or ( <= ( + X2 43 ) X17 )  ( <= ( + X17 61 ) X2 )  ( <= ( + Y2 75 ) Y17 )  ( <= ( + Y17 77 ) Y2 )  )
( or ( <= ( + X3 28 ) X4 )  ( <= ( + X4 73 ) X3 )  ( <= ( + Y3 48 ) Y4 )  ( <= ( + Y4 81 ) Y3 )  )
( or ( <= ( + X3 28 ) X5 )  ( <= ( + X5 15 ) X3 )  ( <= ( + Y3 48 ) Y5 )  ( <= ( + Y5 66 ) Y3 )  )
( or ( <= ( + X3 28 ) X6 )  ( <= ( + X6 70 ) X3 )  ( <= ( + Y3 48 ) Y6 )  ( <= ( + Y6 76 ) Y3 )  )
( or ( <= ( + X3 28 ) X7 )  ( <= ( + X7 9 ) X3 )  ( <= ( + Y3 48 ) Y7 )  ( <= ( + Y7 67 ) Y3 )  )
( or ( <= ( + X3 28 ) X8 )  ( <= ( + X8 80 ) X3 )  ( <= ( + Y3 48 ) Y8 )  ( <= ( + Y8 52 ) Y3 )  )
( or ( <= ( + X3 28 ) X9 )  ( <= ( + X9 40 ) X3 )  ( <= ( + Y3 48 ) Y9 )  ( <= ( + Y9 18 ) Y3 )  )
( or ( <= ( + X3 28 ) X10 )  ( <= ( + X10 81 ) X3 )  ( <= ( + Y3 48 ) Y10 )  ( <= ( + Y10 93 ) Y3 )  )
( or ( <= ( + X3 28 ) X11 )  ( <= ( + X11 16 ) X3 )  ( <= ( + Y3 48 ) Y11 )  ( <= ( + Y11 90 ) Y3 )  )
( or ( <= ( + X3 28 ) X12 )  ( <= ( + X12 64 ) X3 )  ( <= ( + Y3 48 ) Y12 )  ( <= ( + Y12 16 ) Y3 )  )
( or ( <= ( + X3 28 ) X13 )  ( <= ( + X13 19 ) X3 )  ( <= ( + Y3 48 ) Y13 )  ( <= ( + Y13 24 ) Y3 )  )
( or ( <= ( + X3 28 ) X14 )  ( <= ( + X14 77 ) X3 )  ( <= ( + Y3 48 ) Y14 )  ( <= ( + Y14 5 ) Y3 )  )
( or ( <= ( + X3 28 ) X15 )  ( <= ( + X15 42 ) X3 )  ( <= ( + Y3 48 ) Y15 )  ( <= ( + Y15 58 ) Y3 )  )
( or ( <= ( + X3 28 ) X16 )  ( <= ( + X16 4 ) X3 )  ( <= ( + Y3 48 ) Y16 )  ( <= ( + Y16 52 ) Y3 )  )
( or ( <= ( + X3 28 ) X17 )  ( <= ( + X17 61 ) X3 )  ( <= ( + Y3 48 ) Y17 )  ( <= ( + Y17 77 ) Y3 )  )
( or ( <= ( + X4 73 ) X5 )  ( <= ( + X5 15 ) X4 )  ( <= ( + Y4 81 ) Y5 )  ( <= ( + Y5 66 ) Y4 )  )
( or ( <= ( + X4 73 ) X6 )  ( <= ( + X6 70 ) X4 )  ( <= ( + Y4 81 ) Y6 )  ( <= ( + Y6 76 ) Y4 )  )
( or ( <= ( + X4 73 ) X7 )  ( <= ( + X7 9 ) X4 )  ( <= ( + Y4 81 ) Y7 )  ( <= ( + Y7 67 ) Y4 )  )
( or ( <= ( + X4 73 ) X8 )  ( <= ( + X8 80 ) X4 )  ( <= ( + Y4 81 ) Y8 )  ( <= ( + Y8 52 ) Y4 )  )
( or ( <= ( + X4 73 ) X9 )  ( <= ( + X9 40 ) X4 )  ( <= ( + Y4 81 ) Y9 )  ( <= ( + Y9 18 ) Y4 )  )
( or ( <= ( + X4 73 ) X10 )  ( <= ( + X10 81 ) X4 )  ( <= ( + Y4 81 ) Y10 )  ( <= ( + Y10 93 ) Y4 )  )
( or ( <= ( + X4 73 ) X11 )  ( <= ( + X11 16 ) X4 )  ( <= ( + Y4 81 ) Y11 )  ( <= ( + Y11 90 ) Y4 )  )
( or ( <= ( + X4 73 ) X12 )  ( <= ( + X12 64 ) X4 )  ( <= ( + Y4 81 ) Y12 )  ( <= ( + Y12 16 ) Y4 )  )
( or ( <= ( + X4 73 ) X13 )  ( <= ( + X13 19 ) X4 )  ( <= ( + Y4 81 ) Y13 )  ( <= ( + Y13 24 ) Y4 )  )
( or ( <= ( + X4 73 ) X14 )  ( <= ( + X14 77 ) X4 )  ( <= ( + Y4 81 ) Y14 )  ( <= ( + Y14 5 ) Y4 )  )
( or ( <= ( + X4 73 ) X15 )  ( <= ( + X15 42 ) X4 )  ( <= ( + Y4 81 ) Y15 )  ( <= ( + Y15 58 ) Y4 )  )
( or ( <= ( + X4 73 ) X16 )  ( <= ( + X16 4 ) X4 )  ( <= ( + Y4 81 ) Y16 )  ( <= ( + Y16 52 ) Y4 )  )
( or ( <= ( + X4 73 ) X17 )  ( <= ( + X17 61 ) X4 )  ( <= ( + Y4 81 ) Y17 )  ( <= ( + Y17 77 ) Y4 )  )
( or ( <= ( + X5 15 ) X6 )  ( <= ( + X6 70 ) X5 )  ( <= ( + Y5 66 ) Y6 )  ( <= ( + Y6 76 ) Y5 )  )
( or ( <= ( + X5 15 ) X7 )  ( <= ( + X7 9 ) X5 )  ( <= ( + Y5 66 ) Y7 )  ( <= ( + Y7 67 ) Y5 )  )
( or ( <= ( + X5 15 ) X8 )  ( <= ( + X8 80 ) X5 )  ( <= ( + Y5 66 ) Y8 )  ( <= ( + Y8 52 ) Y5 )  )
( or ( <= ( + X5 15 ) X9 )  ( <= ( + X9 40 ) X5 )  ( <= ( + Y5 66 ) Y9 )  ( <= ( + Y9 18 ) Y5 )  )
( or ( <= ( + X5 15 ) X10 )  ( <= ( + X10 81 ) X5 )  ( <= ( + Y5 66 ) Y10 )  ( <= ( + Y10 93 ) Y5 )  )
( or ( <= ( + X5 15 ) X11 )  ( <= ( + X11 16 ) X5 )  ( <= ( + Y5 66 ) Y11 )  ( <= ( + Y11 90 ) Y5 )  )
( or ( <= ( + X5 15 ) X12 )  ( <= ( + X12 64 ) X5 )  ( <= ( + Y5 66 ) Y12 )  ( <= ( + Y12 16 ) Y5 )  )
( or ( <= ( + X5 15 ) X13 )  ( <= ( + X13 19 ) X5 )  ( <= ( + Y5 66 ) Y13 )  ( <= ( + Y13 24 ) Y5 )  )
( or ( <= ( + X5 15 ) X14 )  ( <= ( + X14 77 ) X5 )  ( <= ( + Y5 66 ) Y14 )  ( <= ( + Y14 5 ) Y5 )  )
( or ( <= ( + X5 15 ) X15 )  ( <= ( + X15 42 ) X5 )  ( <= ( + Y5 66 ) Y15 )  ( <= ( + Y15 58 ) Y5 )  )
( or ( <= ( + X5 15 ) X16 )  ( <= ( + X16 4 ) X5 )  ( <= ( + Y5 66 ) Y16 )  ( <= ( + Y16 52 ) Y5 )  )
( or ( <= ( + X5 15 ) X17 )  ( <= ( + X17 61 ) X5 )  ( <= ( + Y5 66 ) Y17 )  ( <= ( + Y17 77 ) Y5 )  )
( or ( <= ( + X6 70 ) X7 )  ( <= ( + X7 9 ) X6 )  ( <= ( + Y6 76 ) Y7 )  ( <= ( + Y7 67 ) Y6 )  )
( or ( <= ( + X6 70 ) X8 )  ( <= ( + X8 80 ) X6 )  ( <= ( + Y6 76 ) Y8 )  ( <= ( + Y8 52 ) Y6 )  )
( or ( <= ( + X6 70 ) X9 )  ( <= ( + X9 40 ) X6 )  ( <= ( + Y6 76 ) Y9 )  ( <= ( + Y9 18 ) Y6 )  )
( or ( <= ( + X6 70 ) X10 )  ( <= ( + X10 81 ) X6 )  ( <= ( + Y6 76 ) Y10 )  ( <= ( + Y10 93 ) Y6 )  )
( or ( <= ( + X6 70 ) X11 )  ( <= ( + X11 16 ) X6 )  ( <= ( + Y6 76 ) Y11 )  ( <= ( + Y11 90 ) Y6 )  )
( or ( <= ( + X6 70 ) X12 )  ( <= ( + X12 64 ) X6 )  ( <= ( + Y6 76 ) Y12 )  ( <= ( + Y12 16 ) Y6 )  )
( or ( <= ( + X6 70 ) X13 )  ( <= ( + X13 19 ) X6 )  ( <= ( + Y6 76 ) Y13 )  ( <= ( + Y13 24 ) Y6 )  )
( or ( <= ( + X6 70 ) X14 )  ( <= ( + X14 77 ) X6 )  ( <= ( + Y6 76 ) Y14 )  ( <= ( + Y14 5 ) Y6 )  )
( or ( <= ( + X6 70 ) X15 )  ( <= ( + X15 42 ) X6 )  ( <= ( + Y6 76 ) Y15 )  ( <= ( + Y15 58 ) Y6 )  )
( or ( <= ( + X6 70 ) X16 )  ( <= ( + X16 4 ) X6 )  ( <= ( + Y6 76 ) Y16 )  ( <= ( + Y16 52 ) Y6 )  )
( or ( <= ( + X6 70 ) X17 )  ( <= ( + X17 61 ) X6 )  ( <= ( + Y6 76 ) Y17 )  ( <= ( + Y17 77 ) Y6 )  )
( or ( <= ( + X7 9 ) X8 )  ( <= ( + X8 80 ) X7 )  ( <= ( + Y7 67 ) Y8 )  ( <= ( + Y8 52 ) Y7 )  )
( or ( <= ( + X7 9 ) X9 )  ( <= ( + X9 40 ) X7 )  ( <= ( + Y7 67 ) Y9 )  ( <= ( + Y9 18 ) Y7 )  )
( or ( <= ( + X7 9 ) X10 )  ( <= ( + X10 81 ) X7 )  ( <= ( + Y7 67 ) Y10 )  ( <= ( + Y10 93 ) Y7 )  )
( or ( <= ( + X7 9 ) X11 )  ( <= ( + X11 16 ) X7 )  ( <= ( + Y7 67 ) Y11 )  ( <= ( + Y11 90 ) Y7 )  )
( or ( <= ( + X7 9 ) X12 )  ( <= ( + X12 64 ) X7 )  ( <= ( + Y7 67 ) Y12 )  ( <= ( + Y12 16 ) Y7 )  )
( or ( <= ( + X7 9 ) X13 )  ( <= ( + X13 19 ) X7 )  ( <= ( + Y7 67 ) Y13 )  ( <= ( + Y13 24 ) Y7 )  )
( or ( <= ( + X7 9 ) X14 )  ( <= ( + X14 77 ) X7 )  ( <= ( + Y7 67 ) Y14 )  ( <= ( + Y14 5 ) Y7 )  )
( or ( <= ( + X7 9 ) X15 )  ( <= ( + X15 42 ) X7 )  ( <= ( + Y7 67 ) Y15 )  ( <= ( + Y15 58 ) Y7 )  )
( or ( <= ( + X7 9 ) X16 )  ( <= ( + X16 4 ) X7 )  ( <= ( + Y7 67 ) Y16 )  ( <= ( + Y16 52 ) Y7 )  )
( or ( <= ( + X7 9 ) X17 )  ( <= ( + X17 61 ) X7 )  ( <= ( + Y7 67 ) Y17 )  ( <= ( + Y17 77 ) Y7 )  )
( or ( <= ( + X8 80 ) X9 )  ( <= ( + X9 40 ) X8 )  ( <= ( + Y8 52 ) Y9 )  ( <= ( + Y9 18 ) Y8 )  )
( or ( <= ( + X8 80 ) X10 )  ( <= ( + X10 81 ) X8 )  ( <= ( + Y8 52 ) Y10 )  ( <= ( + Y10 93 ) Y8 )  )
( or ( <= ( + X8 80 ) X11 )  ( <= ( + X11 16 ) X8 )  ( <= ( + Y8 52 ) Y11 )  ( <= ( + Y11 90 ) Y8 )  )
( or ( <= ( + X8 80 ) X12 )  ( <= ( + X12 64 ) X8 )  ( <= ( + Y8 52 ) Y12 )  ( <= ( + Y12 16 ) Y8 )  )
( or ( <= ( + X8 80 ) X13 )  ( <= ( + X13 19 ) X8 )  ( <= ( + Y8 52 ) Y13 )  ( <= ( + Y13 24 ) Y8 )  )
( or ( <= ( + X8 80 ) X14 )  ( <= ( + X14 77 ) X8 )  ( <= ( + Y8 52 ) Y14 )  ( <= ( + Y14 5 ) Y8 )  )
( or ( <= ( + X8 80 ) X15 )  ( <= ( + X15 42 ) X8 )  ( <= ( + Y8 52 ) Y15 )  ( <= ( + Y15 58 ) Y8 )  )
( or ( <= ( + X8 80 ) X16 )  ( <= ( + X16 4 ) X8 )  ( <= ( + Y8 52 ) Y16 )  ( <= ( + Y16 52 ) Y8 )  )
( or ( <= ( + X8 80 ) X17 )  ( <= ( + X17 61 ) X8 )  ( <= ( + Y8 52 ) Y17 )  ( <= ( + Y17 77 ) Y8 )  )
( or ( <= ( + X9 40 ) X10 )  ( <= ( + X10 81 ) X9 )  ( <= ( + Y9 18 ) Y10 )  ( <= ( + Y10 93 ) Y9 )  )
( or ( <= ( + X9 40 ) X11 )  ( <= ( + X11 16 ) X9 )  ( <= ( + Y9 18 ) Y11 )  ( <= ( + Y11 90 ) Y9 )  )
( or ( <= ( + X9 40 ) X12 )  ( <= ( + X12 64 ) X9 )  ( <= ( + Y9 18 ) Y12 )  ( <= ( + Y12 16 ) Y9 )  )
( or ( <= ( + X9 40 ) X13 )  ( <= ( + X13 19 ) X9 )  ( <= ( + Y9 18 ) Y13 )  ( <= ( + Y13 24 ) Y9 )  )
( or ( <= ( + X9 40 ) X14 )  ( <= ( + X14 77 ) X9 )  ( <= ( + Y9 18 ) Y14 )  ( <= ( + Y14 5 ) Y9 )  )
( or ( <= ( + X9 40 ) X15 )  ( <= ( + X15 42 ) X9 )  ( <= ( + Y9 18 ) Y15 )  ( <= ( + Y15 58 ) Y9 )  )
( or ( <= ( + X9 40 ) X16 )  ( <= ( + X16 4 ) X9 )  ( <= ( + Y9 18 ) Y16 )  ( <= ( + Y16 52 ) Y9 )  )
( or ( <= ( + X9 40 ) X17 )  ( <= ( + X17 61 ) X9 )  ( <= ( + Y9 18 ) Y17 )  ( <= ( + Y17 77 ) Y9 )  )
( or ( <= ( + X10 81 ) X11 )  ( <= ( + X11 16 ) X10 )  ( <= ( + Y10 93 ) Y11 )  ( <= ( + Y11 90 ) Y10 )  )
( or ( <= ( + X10 81 ) X12 )  ( <= ( + X12 64 ) X10 )  ( <= ( + Y10 93 ) Y12 )  ( <= ( + Y12 16 ) Y10 )  )
( or ( <= ( + X10 81 ) X13 )  ( <= ( + X13 19 ) X10 )  ( <= ( + Y10 93 ) Y13 )  ( <= ( + Y13 24 ) Y10 )  )
( or ( <= ( + X10 81 ) X14 )  ( <= ( + X14 77 ) X10 )  ( <= ( + Y10 93 ) Y14 )  ( <= ( + Y14 5 ) Y10 )  )
( or ( <= ( + X10 81 ) X15 )  ( <= ( + X15 42 ) X10 )  ( <= ( + Y10 93 ) Y15 )  ( <= ( + Y15 58 ) Y10 )  )
( or ( <= ( + X10 81 ) X16 )  ( <= ( + X16 4 ) X10 )  ( <= ( + Y10 93 ) Y16 )  ( <= ( + Y16 52 ) Y10 )  )
( or ( <= ( + X10 81 ) X17 )  ( <= ( + X17 61 ) X10 )  ( <= ( + Y10 93 ) Y17 )  ( <= ( + Y17 77 ) Y10 )  )
( or ( <= ( + X11 16 ) X12 )  ( <= ( + X12 64 ) X11 )  ( <= ( + Y11 90 ) Y12 )  ( <= ( + Y12 16 ) Y11 )  )
( or ( <= ( + X11 16 ) X13 )  ( <= ( + X13 19 ) X11 )  ( <= ( + Y11 90 ) Y13 )  ( <= ( + Y13 24 ) Y11 )  )
( or ( <= ( + X11 16 ) X14 )  ( <= ( + X14 77 ) X11 )  ( <= ( + Y11 90 ) Y14 )  ( <= ( + Y14 5 ) Y11 )  )
( or ( <= ( + X11 16 ) X15 )  ( <= ( + X15 42 ) X11 )  ( <= ( + Y11 90 ) Y15 )  ( <= ( + Y15 58 ) Y11 )  )
( or ( <= ( + X11 16 ) X16 )  ( <= ( + X16 4 ) X11 )  ( <= ( + Y11 90 ) Y16 )  ( <= ( + Y16 52 ) Y11 )  )
( or ( <= ( + X11 16 ) X17 )  ( <= ( + X17 61 ) X11 )  ( <= ( + Y11 90 ) Y17 )  ( <= ( + Y17 77 ) Y11 )  )
( or ( <= ( + X12 64 ) X13 )  ( <= ( + X13 19 ) X12 )  ( <= ( + Y12 16 ) Y13 )  ( <= ( + Y13 24 ) Y12 )  )
( or ( <= ( + X12 64 ) X14 )  ( <= ( + X14 77 ) X12 )  ( <= ( + Y12 16 ) Y14 )  ( <= ( + Y14 5 ) Y12 )  )
( or ( <= ( + X12 64 ) X15 )  ( <= ( + X15 42 ) X12 )  ( <= ( + Y12 16 ) Y15 )  ( <= ( + Y15 58 ) Y12 )  )
( or ( <= ( + X12 64 ) X16 )  ( <= ( + X16 4 ) X12 )  ( <= ( + Y12 16 ) Y16 )  ( <= ( + Y16 52 ) Y12 )  )
( or ( <= ( + X12 64 ) X17 )  ( <= ( + X17 61 ) X12 )  ( <= ( + Y12 16 ) Y17 )  ( <= ( + Y17 77 ) Y12 )  )
( or ( <= ( + X13 19 ) X14 )  ( <= ( + X14 77 ) X13 )  ( <= ( + Y13 24 ) Y14 )  ( <= ( + Y14 5 ) Y13 )  )
( or ( <= ( + X13 19 ) X15 )  ( <= ( + X15 42 ) X13 )  ( <= ( + Y13 24 ) Y15 )  ( <= ( + Y15 58 ) Y13 )  )
( or ( <= ( + X13 19 ) X16 )  ( <= ( + X16 4 ) X13 )  ( <= ( + Y13 24 ) Y16 )  ( <= ( + Y16 52 ) Y13 )  )
( or ( <= ( + X13 19 ) X17 )  ( <= ( + X17 61 ) X13 )  ( <= ( + Y13 24 ) Y17 )  ( <= ( + Y17 77 ) Y13 )  )
( or ( <= ( + X14 77 ) X15 )  ( <= ( + X15 42 ) X14 )  ( <= ( + Y14 5 ) Y15 )  ( <= ( + Y15 58 ) Y14 )  )
( or ( <= ( + X14 77 ) X16 )  ( <= ( + X16 4 ) X14 )  ( <= ( + Y14 5 ) Y16 )  ( <= ( + Y16 52 ) Y14 )  )
( or ( <= ( + X14 77 ) X17 )  ( <= ( + X17 61 ) X14 )  ( <= ( + Y14 5 ) Y17 )  ( <= ( + Y17 77 ) Y14 )  )
( or ( <= ( + X15 42 ) X16 )  ( <= ( + X16 4 ) X15 )  ( <= ( + Y15 58 ) Y16 )  ( <= ( + Y16 52 ) Y15 )  )
( or ( <= ( + X15 42 ) X17 )  ( <= ( + X17 61 ) X15 )  ( <= ( + Y15 58 ) Y17 )  ( <= ( + Y17 77 ) Y15 )  )
( or ( <= ( + X16 4 ) X17 )  ( <= ( + X17 61 ) X16 )  ( <= ( + Y16 52 ) Y17 )  ( <= ( + Y17 77 ) Y16 )  )
( >= X0 0)
( <= ( + X0 80) Z)
( >= Y0 0)
( <= ( + Y0 7 ) 100)
( >= X1 0)
( <= ( + X1 64) Z)
( >= Y1 0)
( <= ( + Y1 94 ) 100)
( >= X2 0)
( <= ( + X2 43) Z)
( >= Y2 0)
( <= ( + Y2 75 ) 100)
( >= X3 0)
( <= ( + X3 28) Z)
( >= Y3 0)
( <= ( + Y3 48 ) 100)
( >= X4 0)
( <= ( + X4 73) Z)
( >= Y4 0)
( <= ( + Y4 81 ) 100)
( >= X5 0)
( <= ( + X5 15) Z)
( >= Y5 0)
( <= ( + Y5 66 ) 100)
( >= X6 0)
( <= ( + X6 70) Z)
( >= Y6 0)
( <= ( + Y6 76 ) 100)
( >= X7 0)
( <= ( + X7 9) Z)
( >= Y7 0)
( <= ( + Y7 67 ) 100)
( >= X8 0)
( <= ( + X8 80) Z)
( >= Y8 0)
( <= ( + Y8 52 ) 100)
( >= X9 0)
( <= ( + X9 40) Z)
( >= Y9 0)
( <= ( + Y9 18 ) 100)
( >= X10 0)
( <= ( + X10 81) Z)
( >= Y10 0)
( <= ( + Y10 93 ) 100)
( >= X11 0)
( <= ( + X11 16) Z)
( >= Y11 0)
( <= ( + Y11 90 ) 100)
( >= X12 0)
( <= ( + X12 64) Z)
( >= Y12 0)
( <= ( + Y12 16 ) 100)
( >= X13 0)
( <= ( + X13 19) Z)
( >= Y13 0)
( <= ( + Y13 24 ) 100)
( >= X14 0)
( <= ( + X14 77) Z)
( >= Y14 0)
( <= ( + Y14 5 ) 100)
( >= X15 0)
( <= ( + X15 42) Z)
( >= Y15 0)
( <= ( + Y15 58 ) 100)
( >= X16 0)
( <= ( + X16 4) Z)
( >= Y16 0)
( <= ( + Y16 52 ) 100)
( >= X17 0)
( <= ( + X17 61) Z)
( >= Y17 0)
( <= ( + Y17 77 ) 100)
) )
)(=> $phi $goal))))